TYPE : Vertex Cover
DIMENSION: 24
EDGE_DATA_SECTION:
0 3
0 6
0 13
0 16
1 8
1 13
1 18
1 23
2 6
2 8
2 9
2 10
2 13
2 16
2 21
2 22
3 5
3 7
3 11
3 12
3 22
4 5
4 10
5 19
5 20
6 13
6 17
6 18
7 8
7 13
7 14
7 23
8 14
8 16
8 22
9 11
10 11
10 16
11 12
11 19
11 20
11 23
12 21
15 23
16 20
16 21
16 23
-1
VERTEX_DEGREE:
4.0 4.0 8.0 6.0 2.0 4.0 5.0 5.0 6.0 2.0 4.0 7.0 3.0 5.0 2.0 1.0 7.0 1.0 2.0 2.0 3.0 3.0 3.0 5.0
VERTEX_COVER:
0 1 2 3 4 5 6 7 8 11 12 16 23
EOF
